5375.0 266789.0 
5369.0 266978.0 
5378.0 266758.0 
5358.0 267046.0 
5445.0 262474.0 
5442.0 262704.0 
5379.0 266168.0 
5386.0 263140.0 
5449.0 261877.0 
5606.0 260548.0 
5346.0 267344.0 
5501.0 260840.0 
